30
0 1 0.52 0.15
0 2 0.38 0.2
0 3 0.22 0.17
0 4 0.3 0.25
0 5 0.3 0.18
0 6 0.52 0.32
0 7 0.4 0.22
0 8 0.63 0.31
0 9 0.55 0.28
0 10 0.57 0.27
0 11 0.14 0.01
0 12 0.59 0.29
0 13 0.51 0.21
0 14 0.66 0.23
0 15 0.72 0.27
0 16 0.64 0.27
0 17 0.63 0.18
0 18 0.48 0.19
0 19 0.48 0.13
0 20 0.48 0.3
0 21 0.5 0.28
0 22 0.48 0.23
0 23 0.58 0.28
0 24 0.69 0.29
0 25 0.34 0.25
0 26 0.51 0.17
0 27 0.51 0.13
0 28 0.56 0.32
0 29 0.25 0.07
1 2 0.46 0.06
1 3 0.6 0.22
1 4 0.46 0.21
1 5 0.38 0.04
1 6 0.58 0.26
1 7 0.58 0.08
1 8 0.59 0.18
1 9 0.64 0.17
1 10 0.7 0.15
1 11 0.66 0.16
1 12 0.7 0.23
1 13 0.48 0.33
1 14 0.9 0.17
1 15 0.74 0.29
1 16 0.54 0.33
1 17 0.6 0.25
1 18 0.64 0.15
1 19 0.64 0.22
1 20 0.6 0.25
1 21 0.66 0.28
1 22 0.65 0.29
1 23 0.78 0.27
1 24 0.85 0.3
1 25 0.27 0.13
1 26 0.55 0.23
1 27 0.76 0.09
1 28 0.68 0.18
1 29 0.42 0.22
2 3 0.38 0.16
2 4 0.37 0.19
2 5 0.08 0.02
2 6 0.45 0.2
2 7 0.65 0.06
2 8 0.4 0.12
2 9 0.34 0.15
2 10 0.74 0.13
2 11 0.52 0.21
2 12 0.66 0.21
2 13 0.56 0.31
2 14 0.71 0.15
2 15 0.68 0.31
2 16 0.62 0.31
2 17 0.65 0.21
2 18 0.46 0.18
2 19 0.66 0.2
2 20 0.65 0.19
2 21 0.34 0.26
2 22 0.7 0.27
2 23 0.67 0.25
2 24 0.55 0.24
2 25 0.32 0.11
2 26 0.64 0.21
2 27 0.61 0.12
2 28 0.38 0.12
2 29 0.63 0.26
3 4 0.51 0.29
3 5 0.46 0.18
3 6 0.74 0.23
3 7 0.48 0.22
3 8 0.78 0.28
3 9 0.6 0.21
3 10 0.74 0.15
3 11 0.36 0.16
3 12 0.58 0.28
3 13 0.61 0.22
3 14 0.65 0.23
3 15 0.57 0.32
3 16 0.48 0.3
3 17 0.85 0.05
3 18 0.33 0.26
3 19 0.54 0.28
3 20 0.67 0.28
3 21 0.54 0.31
3 22 0.52 0.26
3 23 0.53 0.31
3 24 0.67 0.27
3 25 0.56 0.17
3 26 0.4 0.2
3 27 0.62 0.28
3 28 0.58 0.28
3 29 0.47 0.1
4 5 0.29 0.17
4 6 0.66 0.19
4 7 0.28 0.13
4 8 0.33 0.22
4 9 0.43 0.16
4 10 0.64 0.14
4 11 0.44 0.24
4 12 0.74 0.25
4 13 0.5 0.32
4 14 0.5 0.22
4 15 0.42 0.2
4 16 0.38 0.32
4 17 0.58 0.24
4 18 0.18 0.06
4 19 0.38 0.22
4 20 0.51 0.15
4 21 0.2 0.07
4 22 0.78 0.22
4 23 0.72 0.17
4 24 0.39 0.15
4 25 0.28 0.12
4 26 0.35 0.16
4 27 0.54 0.12
4 28 0.55 0.31
4 29 0.55 0.22
5 6 0.53 0.22
5 7 0.57 0.04
5 8 0.48 0.14
5 9 0.26 0.13
5 10 0.66 0.11
5 11 0.44 0.19
5 12 0.58 0.19
5 13 0.64 0.29
5 14 0.69 0.13
5 15 0.6 0.29
5 16 0.54 0.29
5 17 0.73 0.21
5 18 0.38 0.16
5 19 0.58 0.18
5 20 0.73 0.21
5 21 0.42 0.24
5 22 0.76 0.25
5 23 0.59 0.23
5 24 0.52 0.26
5 25 0.24 0.09
5 26 0.56 0.19
5 27 0.53 0.1
5 28 0.3 0.14
5 29 0.55 0.25
6 7 0.52 0.26
6 8 0.62 0.32
6 9 0.68 0.2
6 10 0.36 0.26
6 11 0.6 0.31
6 12 0.58 0.27
6 13 0.8 0.37
6 14 0.54 0.21
6 15 0.53 0.28
6 16 0.47 0.34
6 17 0.2 0.18
6 18 0.48 0.25
6 19 0.37 0.26
6 20 0.5 0.34
6 21 0.58 0.26
6 22 0.62 0.09
6 23 0.72 0.25
6 24 0.75 0.04
6 25 0.73 0.24
6 26 0.71 0.15
6 27 0.69 0.31
6 28 0.68 0.28
6 29 0.44 0.25
7 8 0.61 0.18
7 9 0.71 0.17
7 10 0.62 0.15
7 11 0.54 0.23
7 12 0.66 0.15
7 13 0.51 0.25
7 14 0.4 0.09
7 15 0.44 0.31
7 16 0.62 0.29
7 17 0.45 0.25
7 18 0.46 0.17
7 19 0.66 0.22
7 20 0.69 0.25
7 21 0.38 0.2
7 22 0.74 0.21
7 23 0.77 0.24
7 24 0.67 0.28
7 25 0.56 0.13
7 26 0.63 0.15
7 27 0.78 0.11
7 28 0.45 0.18
7 29 0.65 0.25
8 9 0.62 0.27
8 10 0.66 0.25
8 11 0.67 0.3
8 12 0.65 0.17
8 13 0.83 0.27
8 14 0.62 0.23
8 15 0.75 0.42
8 16 0.62 0.39
8 17 0.52 0.3
8 18 0.51 0.28
8 19 0.68 0.32
8 20 0.48 0.07
8 21 0.53 0.15
8 22 0.64 0.35
8 23 0.52 0.25
8 24 0.72 0.36
8 25 0.54 0.23
8 26 0.58 0.29
8 27 0.78 0.24
8 28 0.56 0.24
8 29 0.65 0.24
9 10 0.4 0.06
9 11 0.42 0.27
9 12 0.67 0.2
9 13 0.64 0.3
9 14 0.7 0.14
9 15 0.34 0.29
9 16 0.66 0.24
9 17 0.76 0.16
9 18 0.58 0.21
9 19 0.76 0.26
9 20 0.65 0.3
9 21 0.63 0.22
9 22 0.7 0.24
9 23 0.8 0.22
9 24 0.61 0.2
9 25 0.42 0.04
9 26 0.72 0.2
9 27 0.56 0.15
9 28 0.54 0.24
9 29 0.67 0.3
10 11 0.54 0.27
10 12 0.56 0.14
10 13 0.82 0.24
10 14 0.3 0.08
10 15 0.48 0.23
10 16 0.26 0.18
10 17 0.42 0.1
10 18 0.62 0.2
10 19 0.73 0.24
10 20 0.49 0.24
10 21 0.58 0.16
10 22 0.35 0.18
10 23 0.44 0.16
10 24 0.6 0.26
10 25 0.56 0.02
10 26 0.64 0.14
10 27 0.54 0.18
10 28 0.7 0.22
10 29 0.61 0.24
11 12 0.45 0.28
11 13 0.47 0.2
11 14 0.6 0.22
11 15 0.62 0.26
11 16 0.73 0.26
11 17 0.49 0.17
11 18 0.59 0.18
11 19 0.34 0.12
11 20 0.36 0.29
11 21 0.64 0.27
11 22 0.34 0.22
11 23 0.61 0.29
11 24 0.78 0.28
11 25 0.48 0.26
11 26 0.46 0.16
11 27 0.37 0.12
11 28 0.62 0.33
11 29 0.31 0.06
12 13 0.78 0.1
12 14 0.26 0.06
12 15 0.66 0.3
12 16 0.5 0.26
12 17 0.48 0.24
12 18 0.56 0.3
12 19 0.7 0.35
12 20 0.44 0.1
12 21 0.75 0.18
12 22 0.64 0.18
12 23 0.44 0.28
12 24 0.64 0.31
12 25 0.78 0.16
12 26 0.84 0.12
12 27 0.66 0.26
12 28 0.52 0.29
12 29 0.5 0.22
13 14 0.52 0.16
13 15 0.5 0.4
13 16 0.74 0.36
13 17 0.62 0.27
13 18 0.68 0.3
13 19 0.5 0.32
13 20 0.62 0.2
13 21 0.7 0.28
13 22 0.56 0.28
13 23 0.83 0.38
13 24 0.76 0.41
13 25 0.64 0.26
13 26 0.64 0.22
13 27 0.41 0.24
13 28 0.62 0.36
13 29 0.36 0.22
14 15 0.56 0.24
14 16 0.56 0.2
14 17 0.7 0.18
14 18 0.32 0.24
14 19 0.44 0.29
14 20 0.7 0.16
14 21 0.7 0.24
14 22 0.58 0.12
14 23 0.37 0.24
14 24 0.68 0.25
14 25 0.64 0.1
14 26 0.78 0.06
14 27 0.59 0.2
14 28 0.4 0.23
14 29 0.69 0.16
15 16 0.74 0.41
15 17 0.42 0.27
15 18 0.24 0.14
15 19 0.54 0.14
15 20 0.8 0.35
15 21 0.56 0.27
15 22 0.56 0.24
15 23 0.76 0.3
15 24 0.58 0.24
15 25 0.6 0.25
15 26 0.38 0.18
15 27 0.6 0.2
15 28 0.55 0.24
15 29 0.68 0.28
16 17 0.43 0.28
16 18 0.56 0.36
16 19 0.65 0.37
16 20 0.46 0.32
16 21 0.58 0.34
16 22 0.58 0.32
16 23 0.7 0.28
16 24 0.62 0.38
16 25 0.3 0.2
16 26 0.55 0.26
16 27 0.8 0.36
16 28 0.84 0.4
16 29 0.58 0.2
17 18 0.54 0.3
17 19 0.57 0.29
17 20 0.4 0.23
17 21 0.38 0.26
17 22 0.5 0.27
17 23 0.65 0.26
17 24 0.68 0.22
17 25 0.54 0.12
17 26 0.52 0.24
17 27 0.78 0.28
17 28 0.54 0.3
17 29 0.64 0.15
18 19 0.56 0.28
18 20 0.66 0.21
18 21 0.38 0.13
18 22 0.8 0.28
18 23 0.69 0.16
18 24 0.55 0.21
18 25 0.46 0.18
18 26 0.53 0.22
18 27 0.36 0.06
18 28 0.37 0.28
18 29 0.44 0.16
19 20 0.61 0.37
19 21 0.58 0.29
19 22 0.68 0.17
19 23 0.81 0.33
19 24 0.64 0.3
19 25 0.66 0.22
19 26 0.5 0.23
19 27 0.71 0.24
19 28 0.35 0.32
19 29 0.52 0.18
20 21 0.31 0.08
20 22 0.7 0.28
20 23 0.48 0.18
20 24 0.58 0.3
20 25 0.76 0.26
20 26 0.46 0.22
20 27 0.48 0.27
20 28 0.48 0.31
20 29 0.48 0.23
21 22 0.81 0.26
21 23 0.58 0.1
21 24 0.52 0.22
21 25 0.48 0.18
21 26 0.32 0.23
21 27 0.74 0.19
21 28 0.35 0.29
21 29 0.48 0.29
22 23 0.27 0.16
22 24 0.78 0.13
22 25 0.52 0.2
22 26 0.8 0.06
22 27 0.62 0.32
22 28 0.62 0.25
22 29 0.65 0.16
23 24 0.84 0.29
23 25 0.6 0.18
23 26 0.56 0.22
23 27 0.7 0.22
23 28 0.77 0.37
23 29 0.69 0.32
24 25 0.67 0.24
24 26 0.54 0.19
24 27 0.46 0.27
24 28 0.46 0.32
24 29 0.5 0.29
25 26 0.63 0.16
25 27 0.76 0.19
25 28 0.54 0.2
25 29 0.59 0.26
26 27 0.66 0.26
26 28 0.38 0.28
26 29 0.76 0.1
27 28 0.56 0.24
27 29 0.6 0.18
28 29 0.66 0.38
